AME : levi30_30
COMMENT : 30: 40x18 -city problem (levikoppenhol)
TYPE : TSP
DIMENSION : 30
EDGE_WEIGHT_TYPE : EUC_2D
NODE_COORD_SECTION
1 1 34
2 8 39
3 18 9
4 3 37
5 5 34
6 2 29
7 14 33
8 9 22
9 12 26
10 12 13
11 8 12
12 8 2
13 16 38
14 5 11
15 17 12
16 2 14
17 6 29
18 14 40
19 4 22
20 9 33
21 12 17
22 13 11
23 16 13
24 14 14
25 2 18
26 0 39
27 8 7
28 16 1
29 11 9
30 6 0
EOF